L=18;
no=3;
njo=[2,3,2];
djo=[4,2,2];
trab=[3,2,6,12,6,3,4,3];
nprec=2;
prec=[| 1, 3,
      | 3, 7 |];


%%%%%%%%%%%%%%%%%%%%%%%%%%%%%%%%%%%%%%%%%%%%%%%%%%%%%%%%%%%%%%%%%%%%%%
%  3
%
%  2   1   2   4  23
%  3   2   6  12 
%  1   1   1   0   1
%      2   1   3
%  1   2   2   0   0
%
%  3   3   5   2   9
%  6   3 
%  2   1   3   1   1
%      1   1   1
%      3   2   7
%  2   2   4   0   0
%  2   3   5   0   0
%
%  2   6   7   2   7
%  4   3 
%  3   1   6   0   0
%  3   2   7   1   0
%      2   1   3
%
% 10
